experiment/data/hgs-res/Vrp-Set-P-n16/Vrp-Set-P-n16-hgs/0.hgs1.vrp
NAME : 0
COMMENT : CVRP Instance
TYPE : CVRP
DIMENSION : 16
EDGE_WEIGHT_TYPE : EUC_2D
CAPACITY : 35
NODE_COORD_SECTION
1	30.0	40.0
2	37.0	52.0
3	49.0	49.0
4	52.0	64.0
5	31.0	62.0
6	52.0	33.0
7	42.0	41.0
8	52.0	41.0
9	57.0	58.0
10	62.0	42.0
11	42.0	57.0
12	27.0	68.0
13	43.0	67.0
14	58.0	48.0
15	58.0	27.0
16	37.0	69.0
DEMAND_SECTION
1	0
2	19
3	30
4	16
5	23
6	11
7	31
8	15
9	28
10	8
11	8
12	7
13	14
14	6
15	19
16	11
DEPOT_SECTION
1
-1
EOF
