experiment/data/hgs-res/Vrp-Set-P-n16/Vrp-Set-P-n16-hgs/0.hgs1.log
=========== Algorithm Parameters =================
---- nbGranular        is set to 20
---- mu                is set to 25
---- lambda            is set to 40
---- nbElite           is set to 4
---- nbClose           is set to 5
---- targetFeasible    is set to 0.2
---- seed              is set to 1234
---- nbIter            is set to 20000
---- timeLimit         is set to 0
---- useSwapStar       is set to 1
==================================================
----- READING INSTANCE: baseline_results/cvrp_hgs/Vrp-Set-P-n16/Vrp-Set-P-n16-hgs/0.hgs1.vrp
----- FLEET SIZE WAS NOT SPECIFIED: DEFAULT INITIALIZATION TO 13 VEHICLES
----- INSTANCE SUCCESSFULLY LOADED WITH 15 CLIENTS AND 13 VEHICLES
----- BUILDING INITIAL POPULATION
----- STARTING GENETIC ALGORITHM
It      0      2 | T(s) 0.02 | Feas 43 451.34 451.80 | Inf 60 434.48 434.48 | Div 0.05 0.00 | Feas 0.00 1.00 | Pen 1.99 0.85
It    500    502 | T(s) 0.09 | Feas 41 451.34 451.63 | Inf 51 447.39 449.43 | Div 0.15 0.21 | Feas 0.18 1.00 | Pen 2.87 0.38
It   1000   1002 | T(s) 0.16 | Feas 58 451.34 451.43 | Inf 44 447.39 450.28 | Div 0.06 0.25 | Feas 0.24 1.00 | Pen 2.87 0.17
It   1500   1502 | T(s) 0.22 | Feas 40 451.34 454.85 | Inf 43 448.78 451.38 | Div 0.24 0.28 | Feas 0.30 1.00 | Pen 2.98 0.10
It   2000   2002 | T(s) 0.29 | Feas 29 451.34 459.55 | Inf 54 451.10 453.69 | Div 0.33 0.23 | Feas 0.14 1.00 | Pen 3.58 0.10
It   2500   2502 | T(s) 0.35 | Feas 27 451.34 461.57 | Inf 53 451.53 455.44 | Div 0.36 0.24 | Feas 0.13 1.00 | Pen 3.72 0.10
It   3000   3002 | T(s) 0.42 | Feas 57 451.34 451.68 | Inf 30 451.98 464.24 | Div 0.07 0.40 | Feas 0.14 1.00 | Pen 3.87 0.10
It   3500   3502 | T(s) 0.48 | Feas 37 451.34 453.92 | Inf 27 450.44 459.34 | Div 0.21 0.43 | Feas 0.43 1.00 | Pen 3.36 0.10
It   4000   4002 | T(s) 0.54 | Feas 50 451.34 451.56 | Inf 30 447.94 453.44 | Div 0.10 0.40 | Feas 0.18 1.00 | Pen 2.91 0.10
It   4500   4502 | T(s) 0.61 | Feas 51 451.34 451.60 | Inf 28 449.24 455.29 | Div 0.11 0.40 | Feas 0.21 1.00 | Pen 3.03 0.10
It   5000   5002 | T(s) 0.68 | Feas 40 451.34 452.51 | Inf 42 449.82 453.38 | Div 0.18 0.33 | Feas 0.32 1.00 | Pen 3.15 0.10
It   5500   5502 | T(s) 0.74 | Feas 41 451.34 453.02 | Inf 36 451.93 459.58 | Div 0.18 0.34 | Feas 0.15 1.00 | Pen 3.86 0.10
It   6000   6002 | T(s) 0.81 | Feas 33 451.34 456.86 | Inf 53 450.20 452.00 | Div 0.28 0.23 | Feas 0.16 1.00 | Pen 3.28 0.10
It   6500   6502 | T(s) 0.87 | Feas 26 451.34 462.44 | Inf 52 447.79 449.79 | Div 0.37 0.19 | Feas 0.42 1.00 | Pen 2.90 0.10
It   7000   7002 | T(s) 0.94 | Feas 52 451.34 451.60 | Inf 51 451.01 453.89 | Div 0.10 0.24 | Feas 0.09 1.00 | Pen 3.55 0.10
It   7500   7502 | T(s) 1.00 | Feas 57 451.34 451.68 | Inf 54 449.59 450.35 | Div 0.11 0.20 | Feas 0.16 1.00 | Pen 3.08 0.10
It   8000   8002 | T(s) 1.07 | Feas 59 451.34 451.68 | Inf 61 451.44 453.26 | Div 0.08 0.14 | Feas 0.13 1.00 | Pen 3.69 0.10
It   8500   8502 | T(s) 1.13 | Feas 39 451.34 452.56 | Inf 51 450.16 451.60 | Div 0.17 0.24 | Feas 0.45 1.00 | Pen 3.26 0.10
It   9000   9002 | T(s) 1.20 | Feas 31 451.34 457.55 | Inf 41 450.55 456.23 | Div 0.30 0.31 | Feas 0.10 1.00 | Pen 3.40 0.10
It   9500   9502 | T(s) 1.26 | Feas 30 451.34 458.88 | Inf 41 448.35 451.85 | Div 0.32 0.33 | Feas 0.45 1.00 | Pen 2.94 0.10
It  10000  10002 | T(s) 1.33 | Feas 44 451.34 451.63 | Inf 34 448.35 452.45 | Div 0.13 0.37 | Feas 0.18 1.00 | Pen 2.94 0.10
It  10500  10502 | T(s) 1.40 | Feas 54 451.34 451.56 | Inf 35 451.18 458.69 | Div 0.10 0.35 | Feas 0.15 1.00 | Pen 3.60 0.10
It  11000  11002 | T(s) 1.46 | Feas 42 451.34 453.37 | Inf 44 449.74 451.93 | Div 0.20 0.27 | Feas 0.35 1.00 | Pen 3.12 0.10
It  11500  11502 | T(s) 1.53 | Feas 56 451.34 451.60 | Inf 38 451.84 458.75 | Div 0.07 0.32 | Feas 0.14 1.00 | Pen 3.82 0.10
It  12000  12002 | T(s) 1.59 | Feas 47 451.34 451.65 | Inf 39 450.31 454.39 | Div 0.12 0.32 | Feas 0.20 1.00 | Pen 3.32 0.10
It  12500  12502 | T(s) 1.66 | Feas 37 451.34 453.42 | Inf 38 447.51 451.35 | Div 0.21 0.33 | Feas 0.45 1.00 | Pen 2.87 0.10
It  13000  13002 | T(s) 1.72 | Feas 55 451.34 451.60 | Inf 51 448.90 450.42 | Div 0.09 0.20 | Feas 0.34 1.00 | Pen 2.99 0.10
It  13500  13502 | T(s) 1.78 | Feas 36 451.34 454.50 | Inf 30 449.70 455.77 | Div 0.22 0.40 | Feas 0.35 1.00 | Pen 3.11 0.10
It  14000  14002 | T(s) 1.85 | Feas 47 451.34 451.73 | Inf 54 451.79 454.78 | Div 0.11 0.19 | Feas 0.14 1.00 | Pen 3.81 0.10
It  14500  14502 | T(s) 1.91 | Feas 58 451.34 451.56 | Inf 26 450.27 460.13 | Div 0.08 0.44 | Feas 0.19 1.00 | Pen 3.30 0.10
It  15000  15002 | T(s) 1.97 | Feas 37 451.34 453.42 | Inf 27 447.37 454.02 | Div 0.21 0.43 | Feas 0.24 1.00 | Pen 2.86 0.10
It  15500  15502 | T(s) 2.04 | Feas 28 451.34 459.88 | Inf 44 448.06 450.27 | Div 0.34 0.22 | Feas 0.20 1.00 | Pen 2.92 0.10
It  16000  16002 | T(s) 2.11 | Feas 47 451.34 451.65 | Inf 53 448.76 448.97 | Div 0.13 0.18 | Feas 0.25 1.00 | Pen 2.98 0.10
It  16500  16502 | T(s) 2.17 | Feas 36 451.34 453.42 | Inf 33 444.00 449.80 | Div 0.21 0.38 | Feas 0.29 1.00 | Pen 2.58 0.10
It  17000  17002 | T(s) 2.24 | Feas 49 451.34 451.65 | Inf 33 449.66 453.61 | Div 0.12 0.37 | Feas 0.16 1.00 | Pen 3.10 0.10
It  17500  17502 | T(s) 2.30 | Feas 27 451.34 462.24 | Inf 44 445.90 448.88 | Div 0.37 0.26 | Feas 0.28 1.00 | Pen 2.74 0.10
It  18000  18002 | T(s) 2.37 | Feas 48 451.34 451.60 | Inf 62 447.23 447.52 | Div 0.11 0.09 | Feas 0.16 1.00 | Pen 2.85 0.10
It  18500  18502 | T(s) 2.44 | Feas 57 451.34 451.63 | Inf 25 448.61 458.35 | Div 0.11 0.46 | Feas 0.27 1.00 | Pen 2.97 0.10
It  19000  19002 | T(s) 2.50 | Feas 55 451.34 451.63 | Inf 40 451.26 456.80 | Div 0.11 0.30 | Feas 0.14 1.00 | Pen 3.63 0.10
It  19500  19502 | T(s) 2.56 | Feas 62 451.34 451.41 | Inf 49 449.81 451.28 | Div 0.04 0.25 | Feas 0.19 1.00 | Pen 3.15 0.10
----- GENETIC ALGORITHM FINISHED AFTER 20000 ITERATIONS. TIME SPENT: 2.63051
----- WRITING BEST SOLUTION IN : baseline_results/cvrp_hgs/Vrp-Set-P-n16/Vrp-Set-P-n16-hgs/0.hgs1.tour
