experiment/data/hgs-res/Vrp-Set-P-n16/Vrp-Set-P-n16-hgs/0.hgs1.tour
Route #1: 7 14
Route #2: 6
Route #3: 5 9 3
Route #4: 8 13
Route #5: 2
Route #6: 1
Route #7: 10 12 15
Route #8: 4 11
Cost 451.335
